9
-1 44 62 85 58 41 55 62 22
59 -1 84 94 63 55 47 38 95
87 10 -1 5 16 14 25 26 11
95 87 35 -1 75 84 58 19 77
80 3 71 41 -1 1 44 22 1
62 22 49 99 27 -1 31 63 65
2 19 77 58 46 49 -1 28 13
68 83 92 69 91 6 37 -1 17
37 26 60 44 21 93 65 29 -1
